c Result of efficient AIG-to-CNF conversion using package CNF
p cnf 30 81
1 -27 -28 0
-1 27 0
-1 28 0
2 27 -28 0
-2 -27 0
-2 28 0
3 1 2 0
-3 -1 0
-3 -2 0
4 -27 -3 0
-4 27 0
-4 3 0
5 -28 -29 0
-5 28 0
-5 29 0
6 28 -29 0
-6 -28 0
-6 29 0
7 5 6 0
-7 -5 0
-7 -6 0
8 3 7 0
-8 -3 0
-8 -7 0
9 -3 4 0
-9 3 0
-9 -4 0
10 3 -4 0
-10 -3 0
-10 4 0
11 9 10 0
-11 -9 0
-11 -10 0
12 -8 9 0
-12 8 0
-12 -9 0
13 8 -9 0
-13 -8 0
-13 9 0
14 12 13 0
-14 -12 0
-14 -13 0
15 -8 -14 0
-15 8 0
-15 14 0
16 8 14 0
-16 -8 0
-16 -14 0
17 15 16 0
-17 -15 0
-17 -16 0
18 11 -17 0
-18 -11 0
-18 17 0
19 -11 17 0
-19 11 0
-19 -17 0
20 18 19 0
-20 -18 0
-20 -19 0
21 9 11 0
-21 -9 0
-21 -11 0
22 -9 11 0
-22 9 0
-22 -11 0
23 21 22 0
-23 -21 0
-23 -22 0
24 9 17 0
-24 -9 0
-24 -17 0
25 -9 20 0
-25 9 0
-25 -20 0
26 24 25 0
-26 -24 0
-26 -25 0
30 0
-23 0
-26 0

